6 
8 
1 
6 
3 
5 
1 
4 
6 
3 
5 
7 
4 
8 
6 
2 
5 
10 
1 
6 
1 
6 
2 
4 
3 
6 
6 
5 
2 
8 
6 
4 
12 
5 
7 
8 
11 
12 
6 
7 
4 
5 
7 
6 
4 
4 
6 
2 
8 
1 
3 
5 
10 
6 
2 
4 
6 
7 
3 
12 
10 
7 
5 
12 
10 
5 
1 
10 
3 
2 
6 
8 
5 
5 
6 
5 
1 
9 
6 
6 
5 
4 
5 
4 
1 
4 
7 
1 
7 
8 
7 
10 
3 
10 
8 
5 
4 
8 
4 
4 
